p cnf 7230 15
3416 -3847 0
-3416 -3845 3846 0
-3414 3845 0
3412 -3840 0
-3412 3841 0
3840 -3841 0
3412 -3849 0
-3846 3847 0
3845 -3847 0
3844 -3845 0
3843 -3844 0
3842 -3843 0
3414 -3842 0
-3838 3839 0
3838 -3839 0
